&FORCE_EVAL
  METHOD         Quickstep
!  STRESS_TENSOR  ANALYTICAL
!  &PRINT
!    &STRESS_TENSOR
!    &END STRESS_TENSOR
!!  &END PRINT
  &DFT
!            BASIS_SET_FILE_NAME  /g100_work/IscrC_Opt-DNA/BASIS
            BASIS_SET_FILE_NAME /g100_work/IscrC_Opt-DNA/BASIS_ADMM
!            BASIS_SET_FILE_NAME /g100_work/IscrC_Opt-DNA/BASIS_ADMM_MOLOPT
            BASIS_SET_FILE_NAME /g100_work/IscrC_Opt-DNA/BASIS_MOLOPT
            BASIS_SET_FILE_NAME /g100_work/IscrC_Opt-DNA/GTH_POTENTIALS
!            BASIS_SET_FILE_NAME /g100_work/IscrC_Opt-DNA/BASIS_RI_cc-TZ
            WFN_RESTART_FILE_NAME /g100_work/IscrC_Opt-DNA/p0-RESTART.wfn
!    CHARGE -1
    &MGRID
      CUTOFF       800
      REL_CUTOFF    50
    &END MGRID
    &QS
     METHOD GPW
    &END QS
    &SCF
     EPS_DEFAULT 1.0E-12
     SCF_GUESS  RESTART
      MAX_SCF    50
      &OT
        MINIMIZER       CG
        PRECONDITIONER  FULL_SINGLE_INVERSE
      &END
      &OUTER_SCF
        MAX_SCF  50
      &END
      &PRINT
        &RESTART OFF
        &END
      &END
    &END SCF
    &AUXILIARY_DENSITY_MATRIX_METHOD
        METHOD BASIS_PROJECTION
        ADMM_PURIFICATION_METHOD MO_DIAG
     &END AUXILIARY_DENSITY_MATRIX_METHOD
   &XC
    &XC_FUNCTIONAL
   &PBE
   SCALE_X 0.60
   SCALE_C 1.0
   &END PBE
   &PBE_HOLE_T_C_LR
    CUTOFF_RADIUS 7.0
    SCALE_X 0.40
    &END PBE_HOLE_T_C_LR
    &END XC_FUNCTIONAL
   &HF
    &SCREENING
    EPS_SCHWARZ 1.0E-6
    SCREEN_ON_INITIAL_P FALSE
    &END SCREENING
    &INTERACTION_POTENTIAL
     POTENTIAL_TYPE TRUNCATED
    CUTOFF_RADIUS 7.0
    T_C_G_DATA /g100_work/IscrC_Opt-DNA/t_c_g.dat
    &END INTERACTION_POTENTIAL
     &MEMORY
     MAX_MEMORY 10000
    EPS_STORAGE_SCALING 0.1
    &END MEMORY
    FRACTION 0.40
    &END HF
      ! non-local vdW part
      &vdW_POTENTIAL
         DISPERSION_FUNCTIONAL NON_LOCAL
         &NON_LOCAL
           TYPE RVV10
           PARAMETERS  5.3  0.0093
           KERNEL_FILE_NAME  /g100_work/IscrC_Opt-DNA/rVV10_kernel_table.dat
           CUTOFF      400
         &END NON_LOCAL
      &END vdW_POTENTIAL
    &END XC
    &PRINT
     &MO_CUBES
      NHOMO 1
!      NLUMO 100
      WRITE_CUBE f
      &EACH  
       MD 50
      &END EACH
      &END MO_CUBES
    &END PRINT
  &END DFT
  &SUBSYS
    &CELL
      ABC [angstrom] 15.6445980072 15.6445980072 15.6445980072
    &END CELL
    &COORD
  O        -8.8574123906        7.4969837938        1.8259466855
  H        -8.0968996353        8.0878009161        1.7292572674
  H        -8.8705103583        7.1506755629        0.8890434717
  O         2.3280610946       -4.0741618910       -8.5216720317
  H         1.9001984956       -3.2630767143       -8.9215723454
  H         1.4672212639       -4.6275207596       -8.5296460559
  O         9.3415481633       -6.0957668747       -3.4327780143
  H         9.1795342582       -5.2857469093       -2.9601737781
  H         8.5506205013       -6.1058675228       -4.1060723544
  O         1.7327065503        0.8503796721        1.2192885564
  H         1.7101190371        0.7365970462        0.2123017011
  H         1.2203560309        1.6683096101        1.5014102593
  O         9.2546664324        1.4068147928        3.8069241000
  H         8.8257688828        0.9779298395        3.0392551998
  H         8.5257052825        1.4209549871        4.5041514589
  O        10.4297277109       -1.4890425928       -1.6308778465
  H        10.0189639357       -2.1605623148       -2.3072724541
  H        10.6185174704       -1.9477498573       -0.7960992973
  O         0.2847582382        2.9875004242       -6.8006128713
  H         0.8747928760        2.4985754131       -6.1028450954
  H         0.7567126883        3.5796086834       -7.4203052704
  O        -1.1118098913        5.3946010249        6.2385625639
  H        -0.1569460418        5.2854618308        6.6352238062
  H        -1.3425561870        4.6630862339        5.6878904170
  O         9.8414580417        6.1838957956       -4.4229755921
  H        -5.2784357316        5.4033085262       -4.2531024627
  H        10.2121537721        6.5185279084       -5.3349634509
  O        11.0012654928       -1.0098289980        3.6551079251
  H        10.6128184242       -0.0938187437        3.7989498344
  H        11.5724698705       -1.0447097563        2.8258303868
  O        -0.2185218071       -5.7665937705        7.4531015537
  H         0.3294875621       -6.4266788511        7.9178193688
  H        -0.6557317903       -6.3209525864        6.8087568139
  O         2.3524939455       -3.0160380879        9.8605248287
  H         3.3581654907       -3.0667583232        9.9636301134
  H         2.0614055842       -3.5493406909        9.1386837620
  O         2.9337368284       -4.2101829585        1.2934211610
  H         2.9390495493       -5.2051079496        1.2005065624
  H         2.1196188701       -3.9294544310        0.6835429639
  O        -7.1218120453       -8.3526251724       -2.0129520480
  H        -6.9040529136       -7.3813772281       -2.0351837066
  H        -7.0887253689       -8.6104187445       -2.9681508113
  O        -6.1988866633       -7.0038681553        1.1813995190
  H        -6.7689969201       -6.4303070071        0.5935758271
  H        -5.8644212190       -7.8527422808        0.7302854926
  O        -4.3397309086        0.8060565991        7.8962011929
  H        -4.7122478623        0.8049337488        8.7895319763
  H        -3.3526147400        1.1047958222        8.0227750642
  O         9.1458503980       -3.1915930551       -3.0137578477
  H         9.1567161066       -3.2352683669       -3.9732410487
  H         8.1331392911       -3.1986590595       -2.8303794506
  O        -5.4053824313       -1.1777722185        6.2529299801
  H        -4.9372118685       -0.5146543186        6.8236074469
  H        -4.8362280611       -1.2067551077        5.3945459861
  O         4.1764687952        3.8411211587       -6.7377919642
  H         3.5479175216        4.5324924683       -6.4486209930
  H         4.8889843137        4.3169816569       -7.1806759102
  O        -2.2603431903        3.9934331151       -2.7020334220
  H        13.4992446606        4.9591127641       -2.3397292918
  H        -2.0828950452        4.0187228417       -3.6977735068
  O        -3.3079896759        7.4499307681        3.9861836780
  H        -3.5457326719        6.5099352806        4.2150117402
  H        -2.9503585035        7.4563087099        3.0441552127
  O        -0.8234264188        6.5976920133       -5.2292468092
  H        -1.3310039735        7.3753657893       -4.7906720575
  H        -1.4630890718        5.8773438414       -5.3495603249
  O        -4.1239305115        4.5892805941        4.4012411930
  H        -4.4824729732        4.2628490235        5.2938698842
  H        -4.7914616160        4.6714837321        3.7820739927
  O         1.4718617088        1.7075529764       -4.8960993140
  H         2.3211739829        1.9466648824       -4.5758273221
  H         1.6188250593        0.8438512805       10.2074723803
  O         7.0186425858        1.4227081971        5.4718731978
  H         6.7198868099        2.1845200288        4.8823922051
  H         6.2727209955        0.7671450799        5.4494939176
  O        -2.1731100211       -6.1621004617       -1.8693225241
  H        -2.3371773792       -5.2987575578       -2.3764911585
  H        -1.2391704522       -6.4320958229       -1.8894024422
  O        -3.7988552201       -3.4927415636       -5.4905915057
  H        -4.6587559062       -3.1811930510       -5.8436224510
  H        -3.2782232234       -3.4797622600       -6.3269197186
  O         3.5398573595        1.3360660205       -7.9507440661
  H         3.2424390982        1.9122498809       -8.6773400268
  H         3.8114190950        2.0488792618       -7.2652047038
  O         1.3497953287        5.1389676143        7.2893973230
  H         1.7374169860        5.9018818243        7.7068585041
  H         2.0725226242        4.7641238847        6.6374511061
  O         5.1644005968       -2.4368146220       -5.6726079852
  H         5.5377092775       -2.1124996929       -4.8470096715
  H         5.2789352200       -1.7021341078       -6.2860351821
  O         2.0287077764       -7.6430034620       -7.1313913393
  H         3.0002360159       -7.5400217999       -7.2198892245
  H         1.8743956479       -7.5262259391        9.5047331507
  O        -4.1117029453        3.9366715800        0.4940797305
  H        -4.3094767485        4.8690561295        0.2552758435
  H        -3.1370695308        3.7362135130        0.2987543656
  O        -0.4939066970       -1.1674663514       -7.5454653223
  H        -1.0498569904       -0.3370244687       -7.6146540738
  H         0.3458458003       -0.9310570884       -7.0439548308
  O        -0.0882444107       -4.9139032278        3.8518651310
  H         0.4103857491       -4.0943635531        4.0341029551
  H         0.4092689848       -5.7803114844        4.0338869670
  O        -4.6947671292       -8.4175180270        8.9796743418
  H        -4.3331758915       -7.6327839897        9.4861084851
  H        -3.8787071754       -8.9724493233        8.6255258349
  O         3.3386821771        6.4287429180        4.4851085623
  H         2.4549482427        6.8990080710        4.2718788789
  H         4.1091027651        6.9390268140        4.5231644417
  O        -4.6670955830       -3.1792858444        0.1340301937
  H        -4.0260188245       -3.6450394815       -0.3906909222
  H        -4.8851288142       -3.6640122165        0.9622534914
  O         6.2109177305       -2.7583786344        1.5738857101
  H         5.5025905888       -2.1432006394        1.2898668476
  H         6.9323882650       -2.1778836191        1.8666560189
  O         3.5394388869        5.3560332428        0.6014217166
  H         2.9221017200        5.4814130684       -0.1218951869
  H         3.9122969908        4.4424871268        0.6483300374
  O         0.1948440539       -3.5168434295       -4.2951839610
  H        -0.5718551026       -3.6257869329       -4.9805907095
  H         1.0430915934       -3.2213241064       -4.7613849548
  O         0.3268752666        3.0259316787        2.2183695060
  H        -0.3028854170        3.3075036194        2.9228922359
  H         1.1857803103        3.3874303510        2.4128440590
  O        -5.7493612316        8.8824561887        3.9602353902
  H        -5.9698011824        8.6010421098        2.9676521474
  H        -4.7794559210        8.6175218833        4.1096943949
  O        -7.0723820616       -5.1427268701       -0.6104746867
  H        -7.9860001512       -4.8139651415       -0.3326446768
  H        -6.4044503257       -4.7588250884       -0.0525474521
  O        -7.2800410419       -2.0837024018        3.3697919747
  H        -6.6285402587       -1.4399948462        3.7238374554
  H        -7.5415047221       -2.6394031435        4.1580600839
  O         7.7952324566       -1.3899453559        7.7141179618
  H        -7.0185002118       -1.2632673015        7.2028444672
  H         7.2829033199       -2.0514273225        7.1901107451
  O        -6.8569566384       10.7059112005        6.0099513497
  H        -6.6494467510       10.0859031098        5.1633028763
  H        -5.8923461624       11.0757070669        6.2319252080
  O         0.2181432472       -7.5245528726       -2.3155784653
  H         0.4064123308       -7.1180715574       -3.2356565734
  H         0.7591924105       -6.9743589838       -1.7350968279
  O        -8.1330191445        6.5475687685       -9.7773819268
  H        -7.7768602455        6.2528965282      -10.6255996905
  H        -7.4463901890        7.0678873392       -9.2841317939
  O         4.2639340831       -0.0632610502        1.1870663592
  H         3.3096469963        0.2628837476        1.0736053410
  H         4.7586836528        0.7312797700        1.3660862403
  O        -1.7481323093        6.2927052663        1.6345879444
  H        -1.8584470715        5.3524375909        1.6775632816
  H        -2.0139348272        6.4563740567        0.7199749881
  O         5.9818863895        3.4484078991        3.8747899905
  H         5.2520335659        3.7479026837        4.3912380938
  H         6.5570136344        4.2032075225        3.7884118816
  O         3.6880529208        2.2999127988       -3.5793565037
  H         3.1113516631        1.9136403229       -2.9331836446
  H         4.5436302999        1.7883162987       -3.7678356030
  O         1.8629122425       -2.1721029112       -2.1562131091
  H         1.4692699066       -2.6269370295       -1.3807813202
  H         1.3403980133       -2.4751438075       -2.9085369529
  O         1.8566842018        5.2710339510       -5.3784215052
  H         1.5628497138        4.5894365478       -4.7478408067
  H         1.0853476747        5.9486537304       -5.4289725273
  O        -1.2717201617        0.9617632990       -3.1150024084
  H        -0.9650549897        1.0157905693       -4.0473139898
  H        -1.0440358736        0.0512671508       -2.8786931508
  O         2.5995011192        3.5044114411        3.1068215196
  H         2.6820391682        2.8710026222        3.8812960270
  H         2.9753129975        4.3492785535        3.3545630759
  O       -10.9142400888       -5.4929921578        5.9214235746
  H       -10.9223564578       -5.9523421262        5.0794321030
  H         3.7968076843       -5.1527083058        6.0226342955
  O        -3.0374439411       -1.0968049054        1.5336243440
  H        -3.4610908529       -1.8312070378        1.0230110696
  H        -3.4597298524       -0.3691748485        1.1425856353
  O        -4.9208554923        3.4757270766        7.4374007526
  H        -5.8942047678        3.6413950140        7.3397118580
  H        -4.8846792617        2.5072314994        7.5037669399
  O         3.6329434527        9.5120614028       -3.2565241571
  H         4.3814399824        9.8069802671       -3.9283736899
  H         3.7207233203       10.2260329451       -2.5303947061
  O         5.6431744016        8.1322654762        4.4282747421
  H         6.3628222443        7.7502154849        5.0571619423
  H         6.0658669453        8.0568218718        3.5397112188
  O        -4.5519151356       -4.1109875235        6.7563686854
  H        -4.8791798429       -3.2551910046       -8.7145507238
  H        -3.8897876236       -3.9141197400        5.9747502835
  O         1.8907859732        5.6696467188       -1.5330845764
  H         1.1664441182        6.1764305864       -1.9162735672
  H         2.6455102609        6.0190143348       -2.0988557462
  O         5.6608195917        2.4820558217        1.2096117335
  H         5.8640951181        2.9348693030        0.3137557405
  H         5.5445729152        3.1081994509        1.8893916674
  O         6.3429599021       -2.8773577171       -2.8954013290
  H         6.1254888985       -2.0656419766       -2.4009193109
  H         5.7072512494       -3.4955827909       -2.5286422068
  O         7.9324678606        3.0721178723        7.4840731904
  H         7.7698640530        2.3062884756        6.8645490925
  H         7.0067317085        3.5911453383        7.5814892086
  O        11.5319659015        0.9427859940        0.2306750715
  H        -3.5425868548        1.6570459402        0.4993953971
  H        -3.9968384854        0.9956057674       -0.7358143065
  O         0.3379574463        3.1701979507       -1.8535057759
  H        -0.5950234665        3.3399272082       -2.2530964378
  H         0.8505792613        4.0111327561       -1.9595795308
  O         7.6123522024       -6.8381270180       10.1499115686
  H         7.4478870402       -7.8303581888       10.3313668346
  H         8.1164250145       -6.8161059340        9.2786074581
  O         3.7925249257       -7.6388138538        1.2148306664
  H         4.1048096785        7.9856084968        2.1511665847
  H         3.9403361121       -8.5328497452        0.8213288007
  O        -2.9261602752       -3.8574320392       -2.7854550404
  H        -2.4895575858       -2.9942382534       -2.4022984949
  H        -3.2252136583       -3.4881178301       -3.6249104634
  O        -5.5578515822        6.2385065652        0.0873705258
  H         9.9667303531        6.4030684808       -0.8738226085
  H        -6.3541853150        5.6248610512        0.2625735501
  O         2.0006161073        0.6775604967       -1.4002520218
  H         2.0180385999       -0.2312531615       -1.8696101753
  H         1.3172564971        1.2661017658       -1.8801437004
  O         8.7998076798        0.4814754893       -1.0123104591
  H         7.9562064367        0.1347556217       -1.4170237737
  H         9.5114903301       -0.2748726967       -1.2398946846
  O        -5.1790019537       -4.0150365714        2.6489153846
  H        -5.8610331411       -3.3289913251        2.9892751844
  H        -5.5659766855       -4.8919966271        3.0144473090
  O        11.5696134708       -6.1788980221       10.5125239997
  H        11.7242620901       -5.2087396231       10.2467279999
  H        10.9211407208       -6.0202000914       11.1940139476
  O         6.1504374689      -10.4671435795        7.7332457769
  H         6.5561099943      -10.0834588610        6.8769719463
  H         6.5426068889       -9.9759346182        8.4814040739
  O         1.1600180767       -6.3195999156       -4.5731037512
  H         0.7874889690       -5.4162922299       -4.5404615867
  H         2.0564021535       -6.2226499136       -4.0359234437
  O        -1.1027031185       -1.6361439128       -2.0846850771
  H        -0.7804091819       -2.2812911710       -2.7891163046
  H        -0.5918332241       -1.6799224037       -1.2197648758
  O         7.3036544167       -9.5013223306       -5.5411382809
  H         8.2831470128       -9.5913776506       -5.2892651699
  H         6.7033825504      -10.1131594070       -5.0074095969
  O        -0.8378622605        7.9271516235        5.3680063352
  H        -0.8303370855        6.9574723327        5.5823892730
  H        -1.6615553468        7.9915892916        4.8275089143
  O         8.3727966810        2.2267567301       -5.4959130054
  H         9.1386896896        2.6287077612       -5.0652272995
  H         8.2551249990        2.5418844637       -6.4101408285
  O        -7.8245703674      -10.1758864917        3.5835454551
  H        -7.8913068300        6.2058790532        2.9008244392
  H         8.4758052946      -10.8121632755        3.1695352176
  O         5.8584906063       -1.1860536248      -10.8892289548
  H         6.6389230094       -1.3480179054      -11.4326543597
  H         5.9005987853       -1.9363979575      -10.2094647870
  O         6.4465715520        6.4854898459       15.1116655846
  H         6.6608837334        5.5455617653       -0.6128711460
  H         7.1900287074       -8.7903977197       -1.1987284576
  O        10.4813058109        3.7053778139       -4.0102478200
  H        10.0161584808        3.5856212350       -3.1778824012
  H        11.4567219364        3.4762749890       -3.8555351889
  O        -6.7590713898        8.5767398925        7.7320380369
  H         8.6454775111        9.3176015573        7.0983788365
  H        -5.7538455067        8.5062254864        7.9423456465
  O        -3.9922921241        0.7285370302       -2.9689334359
  H        -2.9446125309        0.8235228009       -2.9452681547
  H        -4.3197787546       -0.1027041251       -2.5216793548
  O        -1.5648167246        1.5641331568       -7.7160533883
  H        -0.7521180121        2.1426676488       -7.4542415669
  H        -1.3982374987        1.5733638972       -8.6723908807
  O        -2.9069190870        5.3887238851       -7.4472904029
  H        -2.1804468279        5.6072147691       -8.1240010116
  H        -3.7022892725        4.9646113776       -7.9216655079
  O         1.8724448626       -0.5225151869        9.0667276697
  H         2.4453961860       -0.0181527039        8.3963868142
  H         2.2728509521       -1.3184335057        9.3361685995
  O         6.1789780183        1.2654597183       -4.2331506835
  H         6.8330998640        1.9333412320       -4.5402890661
  H         6.0197199257        0.7999747561       10.6022776336
  O         1.1065446856       -8.7713905924        1.2993209026
  H         1.8112302797       -9.4604341440        1.1894388991
  H         0.1743856591       -9.1603750769        1.3716610166
  O         9.3594404783       -2.3389293573       -5.7900587269
  H         9.6398831655       -1.4419383217       -5.3341163052
  H         8.6810281063       -2.0988861188       -6.4506412798
  O         0.3406162072       -3.0514055670        0.2497446303
  H        -0.2130460256       -3.8162190290        0.4482112201
  H         0.2233296690       -2.3686833098        0.9113008041
  O        -0.0131114342       -1.0885639894        1.8753116744
  H        -0.9557106352       -0.8042282429        1.8103627957
  H         0.5782435164       -0.3362080583        1.8982202604
  O         7.7238300546        0.4320435449        1.5768409573
  H         7.2118567003        1.2213176418        1.4386601825
  H         8.3198796026        0.3312032137        0.8068713072
  O         4.0434781842       -3.9279736772       -1.6925166727
  H         3.8050146801       -4.0329065399       -0.7242504722
  H         3.3931640812       -3.3015670417       -2.0018660513
  O         9.1042600122        3.1235098257       -1.1486649649
  H         9.1226977382        2.1670330600       -1.2748226535
  H         9.9640829443        3.3494823002       -0.7128068732
  O         9.6171338010        3.7625961259        2.5751153551
  H        -5.3376277351        3.8425984946        1.8738700104
  H         9.6281742534        2.8422873103        3.0660626926
  O        -2.8736247563       -3.8615120370        4.5573093790
  H        -3.4163779395       -4.3035946820        3.8274847383
  H        -2.2088707202       -4.5943324907        4.6671655666
  O         1.2912747480        8.2419927312        3.6503287995
  H         1.2875948680        7.7624507926        2.7916355945
  H         0.6464476565        7.8294211332        4.3028960287
  O        -5.2193292063        0.2831352446       -5.3848433693
  H        -6.1075416437        0.6888490328       -5.2247094826
  H        -4.7107540799        0.4037607241       -4.5578758423
  O        -4.4516871129        7.8864478459       -1.9687519105
  H        -4.9500805556        7.7932740330       -2.8310173907
  H        -3.8356592988        8.6818297832       -1.9865960297
  O         3.6838005875        4.2064432097        5.8182367242
  H         3.5032948114        5.1791102658        5.4430506461
  H         4.2134040420        4.4734280524        6.5701096417
  O        -1.6134687486        3.0981178276        0.2411995699
  H        -0.8742630443        3.1770431853        0.9023313447
  H        -1.3048645399        3.1831748839       -0.6792941613
  O         5.9644462085       -0.2275998100       -1.2660984634
  H         5.6091368998        0.4529794938       -1.9292295341
  H       -10.3401936370       -0.0931450616       -0.5507181788
  O        -2.1033831850        3.8864788111       -5.3916370143
  H        -2.3662121460        4.3652998476       -6.2321082073
  H        -1.2938709713        3.5811876517       -5.7460498267
  O        -1.9203242062       -9.1996597332       -1.2181171597
  H        -2.7458758485       -8.6812136878       -1.4165341738
  H        -1.1927911213       -8.6614129602       -1.5726572814
  O         5.8319584177       10.1770091055        0.3715245866
  H         5.6387196936       10.9923353640        0.9583402924
  H         5.0161406589        9.6577578024        0.5249181392
  O         5.4646675429       -0.0677453898       -6.7218743249
  H         6.3075136444       -0.0285888292       -7.1604407535
  H         4.8283629325        0.5191848173       -7.1676291147
  O         1.3936523912       -6.2387697998        0.1218986924
  H         0.5222173069        9.7199581997        0.5405395207
  H         1.4499039599        8.4744821135        0.4501061154
  O         5.2750814249       -5.1881148424       -5.3526929110
  H         5.4852928651       -4.2150777981       -5.4991985364
  H         6.2189607363       -5.6537193724       -5.4391562579
  O        -1.5293898661       -3.6529865592        8.9453443797
  H        -1.1498058751       -4.3887397924        8.4991182441
  H        -1.1968985180       -2.7336870222        8.5859318686
  O         4.2775207314        6.6805486058       -2.5212699656
  H         4.9263919125        6.8579702580       -1.7983752622
  H         4.2739180233        7.5660806659       -2.9545671130
  O        -3.3286156827        9.6917429429        0.5971150469
  H        -2.8665804600        9.2887279854       -0.1982519543
  H        -4.2086407574        9.2058696146        0.7465206607
  O         4.6309303032       -6.9895856187        8.2617623357
  H         4.8728282963        9.2117429684        7.4856260422
  H         4.8098614910        9.2337059508        9.0296693861
  O        -0.7387835036       -5.5025076400        1.3446897217
  H        -0.5198776025       -5.2580046889        2.3284016369
  H        -1.6890341449       -5.5182564825        1.1556909412
  O        -1.5441034720        3.4597963789        4.5768521691
  H        -2.3761932703        3.6281814193        4.0851034994
  H        -1.4377044123        2.4834509170        4.6780394391
  O        -9.1028464729       -3.4698722810        6.3961773717
  H        -9.8315809222       -4.1333054470        6.1541406749
  H        -8.2628198909       -3.9510419847        6.0565900455
  O         6.6433210669        3.7810992425       -1.0236594511
  H         6.4222166652        3.8515803071       -1.9637955073
  H         7.5439891333        3.3489497943       -0.9244808749
  O         5.7329625878        4.3464635673       -3.5783377339
  H         5.0732611263        3.9061961020       -4.1400736494
  H         5.3670081317        5.2208467694       -3.3943953941
  N         1.0074697337       -2.1875006808        4.5239858790
  C         0.1040125499       -1.2651793733        4.9416440608
  C         0.4154049469        0.0760100860        5.1537528584
  C         1.7298766877        0.5359622964        4.9859083351
  N         2.6534928504       -0.4835653488        4.6201673396
  C         2.3088038960       -1.7197711958        4.3217579365
  N        -0.7443652363        0.7347192204        5.5355866146
  C        -1.7069880967       -0.1257444378        5.4174712238
  N        -1.2205284072       -1.4350719622        5.0615737699
  H        -1.7378232494       -2.3390458952        4.9223583231
  O         2.1019951987        1.6628017161        5.3148644608
  N         3.2490852012       -2.5824976648        3.9299731595
  H         3.5920673831       -0.1757372102        4.4609236977
  H         4.2704167868       -2.2322476106        3.8939759008
  H         3.0602759214       -3.2488531242        3.1577720305
  H        -2.7993682798       -0.0508584891        5.7037159490
    &END COORD
!    &TOPOLOGY
!      COORD_FILE_NAME   ./fort.20850
!      COORD_FILE_FORMAT xyz
!    &END TOPOLOGY
!    &KIND Pb
!      BASIS_SET DZVP-MOLOPT-SR-GTH-q4
!      POTENTIAL GTH-PBE-q4
!    &END KIND
!    &KIND I
!      BASIS_SET DZVP-MOLOPT-SR-GTH-q7
!      POTENTIAL GTH-PBE-q7
!    &END KIND
    &KIND O
      BASIS_SET DZVP-MOLOPT-SR-GTH-q6
     BASIS_SET AUX_FIT cFIT3
!      BASIS_SET cc-TZ
      POTENTIAL GTH-PBE-q6
    &END KIND
    &KIND H
      BASIS_SET DZVP-MOLOPT-SR-GTH-q1
      BASIS_SET AUX_FIT cFIT3
!     BASIS_SET cc-TZ
      POTENTIAL GTH-PBE-q1
    &END KIND
    &KIND C
     BASIS_SET DZVP-MOLOPT-SR-GTH-q4
!      BASIS_SET cc-TZ
      POTENTIAL GTH-PBE-q4
      BASIS_SET AUX_FIT cFIT3 !SZV-MOLOPT-SR-GTH
    &END KIND
    &KIND N
!      BASIS_SET cc-TZ
      BASIS_SET DZVP-MOLOPT-SR-GTH-q5
      POTENTIAL GTH-PBE-q5
      BASIS_SET AUX_FIT cFIT3 !SZV-MOLOPT-SR-GTH
    &END KIND
  &END SUBSYS
&END FORCE_EVAL
&MOTION
 &MD
  STEPS 50000000
  TIMESTEP 0.48
  TEMPERATURE 350
  ENSEMBLE NVT
  &THERMOSTAT
    REGION MASSIVE
    TYPE NOSE
    &NOSE
      TIMECON 16.68
    &END NOSE
  &END THERMOSTAT
!  &BAROSTAT
!    PRESSURE 0.0
!    TIMECON 300
!  &END BAROSTAT
 &END MD
  &PRINT
   &TRAJECTORY
    &EACH
     MD 1
    &END EACH
   &END TRAJECTORY
!   &CELL
!    &EACH
!     MD 1
!    &END EACH
!   &END CELL
   &VELOCITIES OFF
   &END VELOCITIES
   &FORCES OFF
   &END FORCES
   &RESTART_HISTORY
    &EACH
     MD 500
    &END EACH
   &END RESTART_HISTORY
   &RESTART
    BACKUP_COPIES 3
    &EACH
     MD 1
    &END EACH
   &END RESTART
  &END PRINT
&END MOTION
! &CONSTRAINT
!  &FIXED_ATOMS
!   LIST 1..382
!  &END FIXED_ATOMS
! &END CONSTRAINT
!&GEO_OPT
!  OPTIMIZER BFGS
!    &BFGS
!     TRUST_RADIUS 0.1
!    &END
!&END GEO_OPT

&GLOBAL
  PROJECT      guanine
  RUN_TYPE     MD
  PRINT_LEVEL  LOW
  EXTENDED_FFT_LENGTHS
!  WALLTIME     23:00:00
&END GLOBAL
&EXT_RESTART
 RESTART_FILE_NAME /g100_work/IscrC_Opt-DNA/w-guanine/MD/0/guanine-1.restart
&END EXT_RESTART
